sat
(
  (define-fun inv ((x!0 Int) (x!1 Int) (x!2 Int)) Bool
    (let ((a!1 (not (>= (+ x!0 (* (- 1) x!1)) 1)))
          (a!2 (not (<= (+ x!0 (* (- 1) x!1)) (- 1)))))
      (and (not (<= (+ x!0 x!1 x!2) (- 1)))
           a!1
           (not (>= (+ x!0 x!1 x!2) 1))
           a!2
           (not (<= x!0 (- 1))))))
)
